(set-info :smt-lib-version 2.6)
(set-logic QF_S)
(set-info :source |
Generated by: Murphy Berzish, Mitja Kulczynski, Federico Mora, Florin Manea, Joel Day, Dirk Nowotka, Vijay Ganesh, Zhengyang Lu
Generated on: 2020-10-01
Description: Translated from a collection of real-world regex queries, AutomataArk, collected by Loris D’Antoni and Fang Wang: https://github.com/lorisdanto/automatark
Application: Evaluate solvers on real-world regex queries
Target solver: Z3str3RE, CVC4, OSTRICH, Z3seq, Z3str3, Z3-Trau
Publications: Berzish, M., Kulczynski, M., Mora, F., Manea, F., Day, J. D., Nowotka, D., & Ganesh, V. (2021, July). An SMT solver for regular expressions and linear arithmetic over string length. In CAV 2021.
|)
(set-info :license "https://creativecommons.org/licenses/by/4.0/")
(set-info :category "industrial")
(set-info :status sat)

(declare-const X String)
(assert (not (str.in_re X (re.++ (str.to_re "\u{a}") (re.+ (re.union (re.range "a" "f") (re.range "A" "F"))) (re.opt (re.union (str.to_re "+") (str.to_re "-")))))))
(assert (not (str.in_re X (re.++ (str.to_re "Toolbar") (re.+ (re.union (str.to_re " ") (str.to_re "\u{9}") (str.to_re "\u{a}") (str.to_re "\u{c}") (str.to_re "\u{d}"))) (str.to_re "Host:") (re.+ (re.union (re.range "0" "9") (re.range "A" "Z") (re.range "a" "z") (str.to_re "_"))) (str.to_re "Host:EIcdpnode=reportUID/ServertoX-Mailer:\u{13}\u{a}")))))
(assert (not (str.in_re X (re.++ (str.to_re "//mrow_pin/?id") (re.+ (re.range "0" "9")) ((_ re.loop 5 5) (re.range "0" "9")) (str.to_re "&rnd=") (re.+ (re.range "0" "9")) (str.to_re "/smi\u{a}") ((_ re.loop 5 5) (re.range "a" "z")) (re.* (re.range "a" "z"))))))
(assert (not (str.in_re X (re.union (re.++ ((_ re.loop 3 3) (re.range "A" "Z")) (re.opt (re.union (str.to_re " ") (str.to_re "\u{9}") (str.to_re "\u{a}") (str.to_re "\u{c}") (str.to_re "\u{d}"))) (re.union ((_ re.loop 3 3) (re.range "0" "9")) ((_ re.loop 2 2) (re.range "0" "9")) ((_ re.loop 1 1) (str.to_re "d"))) (re.opt (re.union (str.to_re " ") (str.to_re "\u{9}") (str.to_re "\u{a}") (str.to_re "\u{c}") (str.to_re "\u{d}"))) (re.range "A" "Z")) (re.++ (str.to_re "\u{a}") (re.range "A" "Z") (re.opt (re.union (str.to_re " ") (str.to_re "\u{9}") (str.to_re "\u{a}") (str.to_re "\u{c}") (str.to_re "\u{d}"))) (re.union ((_ re.loop 3 3) (re.range "0" "9")) ((_ re.loop 2 2) (re.range "0" "9")) ((_ re.loop 1 1) (re.range "0" "9"))) (re.opt (re.union (str.to_re " ") (str.to_re "\u{9}") (str.to_re "\u{a}") (str.to_re "\u{c}") (str.to_re "\u{d}"))) ((_ re.loop 3 3) (re.range "A" "Z")))))))
(check-sat)

(exit)
